Optimal - objective value -80.00000000
     57 x#1#58                 1                       0
    113 x#2#34                 1                       0
    205 x#3#46                 1                       0
    292 x#4#53                 1                       0
    326 x#5#7                  1                       0
    408 x#6#9                  1                       0
    550 x#7#71                 1                       0
    601 x#8#42                 1                       0
    656 x#9#17                 1                       0
    747 x#10#28                1                       0
    822 x#11#23                1                       0
    933 x#12#54                1                       0
   1007 x#13#48                1                       0
   1066 x#14#27                1                       0
   1131 x#15#12                1                       0
   1237 x#16#38                1                       0
   1315 x#17#36                1                       0
   1415 x#18#56                1                       0
   1505 x#19#66                1                       0
   1580 x#20#61                1                       0
   1615 x#21#16                1                       0
   1708 x#22#29                1                       0
   1811 x#23#52                1                       0
   1857 x#24#18                1                       0
   1999 x#25#80                1                       0
   2050 x#26#51                1                       0
   2080 x#27#1                 1                       0
   2226 x#28#67                1                       0
   2304 x#29#65                1                       0
   2354 x#30#35                1                       0
   2436 x#31#37                1                       0
   2538 x#32#59                1                       0
   2570 x#33#11                1                       0
   2684 x#34#45                1                       0
   2774 x#35#55                1                       0
   2821 x#36#22                1                       0
   2953 x#37#74                1                       0
   2973 x#38#14                1                       0
   3102 x#39#63                1                       0
   3127 x#40#8                 1                       0
   3268 x#41#69                1                       0
   3309 x#42#30                1                       0
   3423 x#43#64                1                       0
   3479 x#44#40                1                       0
   3594 x#45#75                1                       0
   3659 x#46#60                1                       0
   3749 x#47#70                1                       0
   3798 x#48#39                1                       0
   3859 x#49#20                1                       0
   3951 x#50#32                1                       0
   4076 x#51#77                1                       0
   4082 x#52#3                 1                       0
   4202 x#53#43                1                       0
   4241 x#54#2                 1                       0
   4340 x#55#21                1                       0
   4472 x#56#73                1                       0
   4492 x#57#13                1                       0
   4600 x#58#41                1                       0
   4644 x#59#5                 1                       0
   4795 x#60#76                1                       0
   4818 x#61#19                1                       0
   4951 x#62#72                1                       0
   4963 x#63#4                 1                       0
   5088 x#64#49                1                       0
   5163 x#65#44                1                       0
   5225 x#66#26                1                       0
   5310 x#67#31                1                       0
   5374 x#68#15                1                       0
   5501 x#69#62                1                       0
   5598 x#70#79                1                       0
   5632 x#71#33                1                       0
   5704 x#72#25                1                       0
   5816 x#73#57                1                       0
   5917 x#74#78                1                       0
   5966 x#75#47                1                       0
   6067 x#76#68                1                       0
   6129 x#77#50                1                       0
   6169 x#78#10                1                       0
   6263 x#79#24                1                       0
   6325 x#80#6                 1                       0
